/*  Objective function*/
max: 4 s1 + 6.50 s2 + 5.9 s3 + 5.4 h1 + 5.15 h2 + 10 h3 + 8.4 c1 + 6.25 c2;

/*  Constraints */ 
40 s1 + 50 s2 + 80 s3 +60 h1 + 45 h2 + 60 h3 + 30 c1 + 25 c2 <= 2500000;
40 s1 + 50 s2 + 80 s3 <= 1000000;
60 h1 + 45 h2 + 60 h3<= 1000000;
30 c1 + 25 c2 <= 1000000; 
40 s1 >= 100000;
50 s2 >= 100000;
80 s3 >= 100000;
60 h1 >= 100000;
45 h2 >= 100000;
60 h3 >= 100000;
30 c1 >= 100000;
25 c2 >= 100000;
s1 = 1000 n1;
s2 = 1000 n2;
s3 = 1000 n3;
h1 = 1000 n4;
h2 = 1000 n5;
h3 = 1000 n6;
c1 = 1000 n7;
c2 = 1000 n8;
n1 >= 1;
n2 >= 1;
n3 >= 1;
n4 >= 1;
n5 >= 1;
n6 >= 1;
n7 >= 1;
n8 >= 1;
int n1, n2, n3, n4, n5, n6, n7, n8;
int s1, s2, s3, h1, h2, h3, c1, c2; 